; benchmark generated from python API
(set-info :status unknown)
(declare-fun x_days () Int)
(assert
 (>= x_days (- 36584)))
(assert
 (<= x_days 36829))
(assert
 (>= x_days 8341))
(assert
 (<= x_days 8371))
(assert
 (let ((?x1067 (+ x_days 730179)))
 (let ((?x887 (mod ?x1067 146097)))
 (let ((?x896 (div ?x887 36524)))
 (let ((?x549 (ite (<= 4 ?x896) 3 ?x896)))
 (let ((?x856 (- ?x887 (* ?x549 36524))))
 (let ((?x458 (mod ?x856 1461)))
 (let ((?x455 (div ?x458 365)))
 (let ((?x459 (ite (<= 4 ?x455) 3 ?x455)))
 (let ((?x1313 (+ (+ (* (div ?x1067 146097) 400) (* ?x549 100)) (* (div ?x856 1461) 4))))
 (let ((?x460 (+ (+ ?x1313 ?x459) 1)))
 (let (($x1580 (or (and (= (mod ?x460 4) 0) (and (distinct (mod ?x460 100) 0) true)) (= (mod ?x460 400) 0))))
 (let ((?x464 (- ?x458 (* ?x459 365))))
 (let ((?x839 (ite $x1580 31 31)))
 (let (($x971 (>= ?x464 ?x839)))
 (let ((?x772 (ite $x971 (+ (- ?x464 ?x839) 1) (+ (- ?x464 (ite $x1580 0 0)) 1))))
 (let ((?x1423 (ite $x1580 60 59)))
 (let (($x271 (>= ?x464 ?x1423)))
 (let ((?x1108 (ite $x1580 91 90)))
 (let (($x1612 (>= ?x464 ?x1108)))
 (let ((?x1377 (ite $x1612 (+ (- ?x464 ?x1108) 1) (ite $x271 (+ (- ?x464 ?x1423) 1) ?x772))))
 (let ((?x1112 (ite $x1580 121 120)))
 (let (($x785 (>= ?x464 ?x1112)))
 (let ((?x1599 (ite $x1580 152 151)))
 (let (($x1387 (>= ?x464 ?x1599)))
 (let ((?x970 (ite $x1387 (+ (- ?x464 ?x1599) 1) (ite $x785 (+ (- ?x464 ?x1112) 1) ?x1377))))
 (let ((?x743 (ite $x1580 182 181)))
 (let (($x1594 (>= ?x464 ?x743)))
 (let ((?x1357 (ite $x1580 213 212)))
 (let (($x1521 (>= ?x464 ?x1357)))
 (let ((?x720 (ite $x1521 (+ (- ?x464 ?x1357) 1) (ite $x1594 (+ (- ?x464 ?x743) 1) ?x970))))
 (let ((?x1071 (ite $x1580 244 243)))
 (let (($x545 (>= ?x464 ?x1071)))
 (let ((?x1002 (ite $x1580 274 273)))
 (let (($x1148 (>= ?x464 ?x1002)))
 (let ((?x680 (ite $x1148 (+ (- ?x464 ?x1002) 1) (ite $x545 (+ (- ?x464 ?x1071) 1) ?x720))))
 (let ((?x721 (ite $x1580 305 304)))
 (let (($x326 (>= ?x464 ?x721)))
 (let ((?x1163 (ite $x1580 335 334)))
 (let (($x327 (>= ?x464 ?x1163)))
 (let ((?x1477 (ite $x327 (+ (- ?x464 ?x1163) 1) (ite $x326 (+ (- ?x464 ?x721) 1) ?x680))))
 (let ((?x1422 (ite $x785 5 (ite $x1612 4 (ite $x271 3 (ite $x971 2 1))))))
 (let ((?x1133 (ite $x545 9 (ite $x1521 8 (ite $x1594 7 (ite $x1387 6 ?x1422))))))
 (let ((?x1581 (+ (ite $x327 12 (ite $x326 11 (ite $x1148 10 ?x1133))) (+ (* 0 12) 1))))
 (let ((?x510 (- ?x1581 1)))
 (let ((?x484 (+ (mod ?x510 12) 1)))
 (let ((?x830 (ite (or (= ?x484 4) (= ?x484 6) (= ?x484 9) (= ?x484 11)) 30 31)))
 (let (($x1591 (and (= (mod (+ ?x460 (+ 0 (div ?x510 12))) 4) 0) (and (distinct (mod (+ ?x460 (+ 0 (div ?x510 12))) 100) 0) true))))
 (let (($x889 (or $x1591 (= (mod (+ ?x460 (+ 0 (div ?x510 12))) 400) 0))))
 (let ((?x1574 (ite (= ?x484 2) (ite $x889 29 28) ?x830)))
 (let ((?x550 (ite (> 1 ?x1477) 1 (ite (> ?x1477 ?x1574) ?x1574 ?x1477))))
 (let ((?x509 (ite (> 1 ?x550) 1 (ite (> ?x550 ?x1574) ?x1574 ?x550))))
 (let ((?x732 (ite (= 2 ?x484) (ite $x889 31 31) (ite (= 1 ?x484) (ite $x889 0 0) 0))))
 (let ((?x237 (ite (= 4 ?x484) (ite $x889 91 90) (ite (= 3 ?x484) (ite $x889 60 59) ?x732))))
 (let ((?x1248 (ite (= 6 ?x484) (ite $x889 152 151) (ite (= 5 ?x484) (ite $x889 121 120) ?x237))))
 (let ((?x554 (ite (= 8 ?x484) (ite $x889 213 212) (ite (= 7 ?x484) (ite $x889 182 181) ?x1248))))
 (let ((?x247 (ite (= 10 ?x484) (ite $x889 274 273) (ite (= 9 ?x484) (ite $x889 244 243) ?x554))))
 (let ((?x922 (ite (= 12 ?x484) (ite $x889 335 334) (ite (= 11 ?x484) (ite $x889 305 304) ?x247))))
 (let ((?x986 (+ (* 365 (- (+ ?x460 (+ 0 (div ?x510 12))) 1)) (div (- (+ ?x460 (+ 0 (div ?x510 12))) 1) 4))))
 (let ((?x733 (+ (- ?x986 (div (- (+ ?x460 (+ 0 (div ?x510 12))) 1) 100)) (div (- (+ ?x460 (+ 0 (div ?x510 12))) 1) 400))))
 (let ((?x1160 (+ (+ (- (+ (+ ?x733 ?x922) (- ?x509 1)) 730179) 0) 730179)))
 (let ((?x784 (mod ?x1160 146097)))
 (let ((?x734 (div ?x784 36524)))
 (let ((?x960 (ite (<= 4 ?x734) 3 ?x734)))
 (let ((?x1004 (- ?x784 (* ?x960 36524))))
 (let ((?x1086 (mod ?x1004 1461)))
 (let ((?x1109 (div ?x1086 365)))
 (let ((?x324 (ite (<= 4 ?x1109) 3 ?x1109)))
 (let ((?x1340 (+ (+ (* (div ?x1160 146097) 400) (* ?x960 100)) (* (div ?x1004 1461) 4))))
 (let ((?x819 (+ (+ ?x1340 ?x324) 1)))
 (let (($x1124 (or (and (= (mod ?x819 4) 0) (and (distinct (mod ?x819 100) 0) true)) (= (mod ?x819 400) 0))))
 (let ((?x1074 (- ?x1086 (* ?x324 365))))
 (let ((?x1584 (ite $x1124 31 31)))
 (let (($x1482 (>= ?x1074 ?x1584)))
 (let ((?x1539 (ite $x1482 (+ (- ?x1074 ?x1584) 1) (+ (- ?x1074 (ite $x1124 0 0)) 1))))
 (let ((?x1582 (ite $x1124 60 59)))
 (let (($x1526 (>= ?x1074 ?x1582)))
 (let ((?x396 (ite $x1124 91 90)))
 (let (($x1107 (>= ?x1074 ?x396)))
 (let ((?x277 (ite $x1107 (+ (- ?x1074 ?x396) 1) (ite $x1526 (+ (- ?x1074 ?x1582) 1) ?x1539))))
 (let ((?x1487 (ite $x1124 121 120)))
 (let (($x1486 (>= ?x1074 ?x1487)))
 (let ((?x1490 (ite $x1124 152 151)))
 (let (($x790 (>= ?x1074 ?x1490)))
 (let ((?x937 (ite $x790 (+ (- ?x1074 ?x1490) 1) (ite $x1486 (+ (- ?x1074 ?x1487) 1) ?x277))))
 (let ((?x1602 (ite $x1124 182 181)))
 (let (($x1483 (>= ?x1074 ?x1602)))
 (let ((?x1491 (ite $x1124 213 212)))
 (let (($x531 (>= ?x1074 ?x1491)))
 (let ((?x1069 (ite $x531 (+ (- ?x1074 ?x1491) 1) (ite $x1483 (+ (- ?x1074 ?x1602) 1) ?x937))))
 (let ((?x1492 (ite $x1124 244 243)))
 (let (($x264 (>= ?x1074 ?x1492)))
 (let ((?x1493 (ite $x1124 274 273)))
 (let (($x1520 (>= ?x1074 ?x1493)))
 (let ((?x1013 (ite $x1520 (+ (- ?x1074 ?x1493) 1) (ite $x264 (+ (- ?x1074 ?x1492) 1) ?x1069))))
 (let ((?x1494 (ite $x1124 305 304)))
 (let (($x1111 (>= ?x1074 ?x1494)))
 (let ((?x1481 (ite $x1124 335 334)))
 (let (($x1603 (>= ?x1074 ?x1481)))
 (let ((?x240 (ite $x1603 (+ (- ?x1074 ?x1481) 1) (ite $x1111 (+ (- ?x1074 ?x1494) 1) ?x1013))))
 (let (($x849 (= 0 0)))
 (let (($x542 (= (mod (ite $x849 (+ ?x460 (+ 0 (div ?x510 12))) ?x819) 400) 0)))
 (let (($x899 (and (distinct (mod (ite $x849 (+ ?x460 (+ 0 (div ?x510 12))) ?x819) 100) 0) true)))
 (let (($x315 (= (mod (ite $x849 (+ ?x460 (+ 0 (div ?x510 12))) ?x819) 4) 0)))
 (let (($x1592 (or (and $x315 $x899) $x542)))
 (let ((?x562 (ite $x1486 5 (ite $x1107 4 (ite $x1526 3 (ite $x1482 2 1))))))
 (let ((?x1559 (ite $x264 9 (ite $x531 8 (ite $x1483 7 (ite $x790 6 ?x562))))))
 (let ((?x736 (ite $x849 ?x484 (ite $x1603 12 (ite $x1111 11 (ite $x1520 10 ?x1559))))))
 (let ((?x412 (ite (= 2 ?x736) (ite $x1592 31 31) (ite (= 1 ?x736) (ite $x1592 0 0) 0))))
 (let ((?x870 (ite (= 4 ?x736) (ite $x1592 91 90) (ite (= 3 ?x736) (ite $x1592 60 59) ?x412))))
 (let ((?x1304 (ite (= 6 ?x736) (ite $x1592 152 151) (ite (= 5 ?x736) (ite $x1592 121 120) ?x870))))
 (let ((?x740 (ite (= 8 ?x736) (ite $x1592 213 212) (ite (= 7 ?x736) (ite $x1592 182 181) ?x1304))))
 (let ((?x1235 (ite (= 10 ?x736) (ite $x1592 274 273) (ite (= 9 ?x736) (ite $x1592 244 243) ?x740))))
 (let ((?x1161 (ite (= 12 ?x736) (ite $x1592 335 334) (ite (= 11 ?x736) (ite $x1592 305 304) ?x1235))))
 (let ((?x1546 (+ ?x460 (+ 0 (div ?x510 12)))))
 (let ((?x755 (ite $x849 ?x1546 ?x819)))
 (let ((?x763 (- ?x755 1)))
 (let ((?x989 (+ (- (+ (* 365 ?x763) (div ?x763 4)) (div ?x763 100)) (div ?x763 400))))
 (let (($x753 (= (- (+ (+ ?x989 ?x1161) (- (ite $x849 ?x509 ?x240) 1)) 730179) (+ x_days 30))))
 (not $x753))))))))))))))))))))))))))))))))))))))))))))))))))))))))))))))))))))))))))))))))))))))))))))))))))))))))))))))))))))))))
(assert
 (= x_days 8368))
(check-sat)
